Route #1: 1 40 25 3 17 8 19 39 1 
Route #2: 1 1 35 18 20 21 12 22 41 9 29 43 1 
Route #3: 1 16 37 10 33 15 4 1 
Route #4: 1 13 14 38 6 24 23 30 1 
Route #5: 1 26 11 42 32 27 7 31 1 
Route #6: 1 36 2 34 28 5 1 

Cost 1564.43
Time 0.3708


 * Another infos *

 Iterations: 44 Time: 0.3708 sec - 0.0062 min - 0.0001 horas
0.0000 h 0.0062 min
Problem dimension: 44
